c CNF file corresponding to a (partial) station packing problem.
p cnf 3027 198
1 2 3 4 5 6 7 8 9 10 11 12 13 14 0
-1 -2 0
-1 -3 0
-1 -4 0
-1 -5 0
-1 -6 0
-1 -7 0
-1 -8 0
-1 -9 0
-1 -10 0
-1 -11 0
-1 -12 0
-1 -13 0
-1 -14 0
-2 -3 0
-2 -4 0
-2 -5 0
-2 -6 0
-2 -7 0
-2 -8 0
-2 -9 0
-2 -10 0
-2 -11 0
-2 -12 0
-2 -13 0
-2 -14 0
-3 -4 0
-3 -5 0
-3 -6 0
-3 -7 0
-3 -8 0
-3 -9 0
-3 -10 0
-3 -11 0
-3 -12 0
-3 -13 0
-3 -14 0
-4 -5 0
-4 -6 0
-4 -7 0
-4 -8 0
-4 -9 0
-4 -10 0
-4 -11 0
-4 -12 0
-4 -13 0
-4 -14 0
-5 -6 0
-5 -7 0
-5 -8 0
-5 -9 0
-5 -10 0
-5 -11 0
-5 -12 0
-5 -13 0
-5 -14 0
-6 -7 0
-6 -8 0
-6 -9 0
-6 -10 0
-6 -11 0
-6 -12 0
-6 -13 0
-6 -14 0
-7 -8 0
-7 -9 0
-7 -10 0
-7 -11 0
-7 -12 0
-7 -13 0
-7 -14 0
-8 -9 0
-8 -10 0
-8 -11 0
-8 -12 0
-8 -13 0
-8 -14 0
-9 -10 0
-9 -11 0
-9 -12 0
-9 -13 0
-9 -14 0
-10 -11 0
-10 -12 0
-10 -13 0
-10 -14 0
-11 -12 0
-11 -13 0
-11 -14 0
-12 -13 0
-12 -14 0
-13 -14 0
3013 3014 3015 3016 3017 3018 3019 3020 3021 3022 3023 3024 3025 3026 3027 0
-3013 -3014 0
-3013 -3015 0
-3013 -3016 0
-3013 -3017 0
-3013 -3018 0
-3013 -3019 0
-3013 -3020 0
-3013 -3021 0
-3013 -3022 0
-3013 -3023 0
-3013 -3024 0
-3013 -3025 0
-3013 -3026 0
-3013 -3027 0
-3014 -3015 0
-3014 -3016 0
-3014 -3017 0
-3014 -3018 0
-3014 -3019 0
-3014 -3020 0
-3014 -3021 0
-3014 -3022 0
-3014 -3023 0
-3014 -3024 0
-3014 -3025 0
-3014 -3026 0
-3014 -3027 0
-3015 -3016 0
-3015 -3017 0
-3015 -3018 0
-3015 -3019 0
-3015 -3020 0
-3015 -3021 0
-3015 -3022 0
-3015 -3023 0
-3015 -3024 0
-3015 -3025 0
-3015 -3026 0
-3015 -3027 0
-3016 -3017 0
-3016 -3018 0
-3016 -3019 0
-3016 -3020 0
-3016 -3021 0
-3016 -3022 0
-3016 -3023 0
-3016 -3024 0
-3016 -3025 0
-3016 -3026 0
-3016 -3027 0
-3017 -3018 0
-3017 -3019 0
-3017 -3020 0
-3017 -3021 0
-3017 -3022 0
-3017 -3023 0
-3017 -3024 0
-3017 -3025 0
-3017 -3026 0
-3017 -3027 0
-3018 -3019 0
-3018 -3020 0
-3018 -3021 0
-3018 -3022 0
-3018 -3023 0
-3018 -3024 0
-3018 -3025 0
-3018 -3026 0
-3018 -3027 0
-3019 -3020 0
-3019 -3021 0
-3019 -3022 0
-3019 -3023 0
-3019 -3024 0
-3019 -3025 0
-3019 -3026 0
-3019 -3027 0
-3020 -3021 0
-3020 -3022 0
-3020 -3023 0
-3020 -3024 0
-3020 -3025 0
-3020 -3026 0
-3020 -3027 0
-3021 -3022 0
-3021 -3023 0
-3021 -3024 0
-3021 -3025 0
-3021 -3026 0
-3021 -3027 0
-3022 -3023 0
-3022 -3024 0
-3022 -3025 0
-3022 -3026 0
-3022 -3027 0
-3023 -3024 0
-3023 -3025 0
-3023 -3026 0
-3023 -3027 0
-3024 -3025 0
-3024 -3026 0
-3024 -3027 0
-3025 -3026 0
-3025 -3027 0
-3026 -3027 0
